results_rootrelaxation/bin018_070_000.srr.sol
solution status: optimal solution found
objective value:                     1.57234510246485
_var3084_                           0.139941377249389 	(obj:0)
_var3176_                           0.225289215815863 	(obj:0)
_var3199_                           0.527180741516861 	(obj:0)
_var3200_                          0.0302407176906018 	(obj:0)
_var3206_                          0.0694985904947819 	(obj:0)
_var3207_                          0.0928661390339902 	(obj:0)
_var3240_                           0.100439123713316 	(obj:0)
_var3258_                          0.0630915126639926 	(obj:0)
_var3263_                          0.0639287061447896 	(obj:0)
_var3278_                           0.146661780634075 	(obj:0)
_var3306_                           0.162632544232629 	(obj:1)
_var3320_                            0.41975948068242 	(obj:0)
_var3323_                          0.0968839825204791 	(obj:1)
_var3326_                          0.0183505650275459 	(obj:0)
_var3330_                          0.0947122317510066 	(obj:0)
_var3337_                          0.0997164007361966 	(obj:1)
_var3342_                          0.0967928495832549 	(obj:0)
_var3344_                          0.0451446126355118 	(obj:0)
_var3345_                           0.300120154725034 	(obj:0)
_var3358_                         0.00685448871617367 	(obj:1)
_var3385_                           0.037711000762967 	(obj:0)
_var3393_                          0.0322268877167575 	(obj:0)
_var3409_                          0.0265652178378445 	(obj:0)
_var3415_                          0.0599871046411919 	(obj:0)
_var3418_                         0.00981609782614434 	(obj:0)
_var3427_                           0.115497586467731 	(obj:0)
_var3428_                         0.00136651203087157 	(obj:0)
_var3433_                           0.264147383665617 	(obj:0)
_var3438_                           0.580240519317585 	(obj:0)
_var3454_                           0.108957313203172 	(obj:0)
_var3455_                          0.0508404916640097 	(obj:0)
_var3458_                           0.172841628285802 	(obj:0)
_var3459_                          0.0957394777109127 	(obj:1)
_var3465_                           0.114811697838359 	(obj:0)
_var3469_                          0.0462826879344099 	(obj:0)
_var3470_                         0.00153195883941179 	(obj:0)
_var3474_                           0.265974551225524 	(obj:0)
_var3479_                           0.152423957039018 	(obj:0)
_var3480_                          0.0172612042103123 	(obj:0)
_var3481_                           0.454315482740015 	(obj:0)
_var3493_                         0.000997857089331589 	(obj:1)
_var3497_                          0.0847051099740804 	(obj:0)
_var3499_                          0.0462367024723225 	(obj:0)
_var3500_                           0.251607672445575 	(obj:0)
_var3502_                           0.316733276125264 	(obj:0)
_var3503_                          0.0176684584632766 	(obj:0)
_var3508_                          0.0806816008057725 	(obj:0)
_var3511_                           0.236641848038627 	(obj:0)
_var3519_                           0.158182685090445 	(obj:0)
_var3520_                           0.167007696465369 	(obj:0)
_var3522_                           0.029314964560012 	(obj:0)
_var3524_                          0.0926577472470276 	(obj:1)
_var3527_                          0.0588762602109819 	(obj:1)
_var3533_                          0.0545739090234575 	(obj:0)
_var3536_                           0.125774458475956 	(obj:0)
_var3538_                           0.134412220549426 	(obj:0)
_var3540_                         0.00146658102391289 	(obj:0)
_var3543_                           0.376292836846569 	(obj:0)
_var3544_                          0.0264570062811765 	(obj:1)
_var3547_                           0.126803410073023 	(obj:0)
_var3550_                           0.152523825805038 	(obj:0)
_var3552_                           0.376811002012537 	(obj:0)
_var3553_                          0.0758032559353475 	(obj:0)
_var3554_                           0.169333940886245 	(obj:0)
_var3556_                           0.238020559083385 	(obj:0)
_var3565_                           0.326418099213387 	(obj:0)
_var3566_                           0.221271424240069 	(obj:0)
_var3568_                          0.0399308727489961 	(obj:0)
_var3572_                           0.285170133417537 	(obj:0)
_var3576_                           0.159280396114207 	(obj:0)
_var3579_                          0.0225915206916267 	(obj:1)
_var3581_                          0.0319381233385621 	(obj:0)
_var3584_                          0.0530597778007246 	(obj:0)
_var3587_                           0.060397569941606 	(obj:0)
_var3588_                          0.0586045225414944 	(obj:0)
_var3589_                           0.150592466059576 	(obj:0)
_var3594_                          0.0124568988260138 	(obj:0)
_var3596_                          0.0745276691989215 	(obj:0)
_var3599_                          0.0508404916640097 	(obj:1)
_var3603_                          0.0733744211447516 	(obj:0)
_var3604_                          0.0767712792052844 	(obj:0)
_var3605_                           0.226377019312284 	(obj:0)
_var3606_                           0.119260207302407 	(obj:0)
_var3610_                          0.0767712792052844 	(obj:0)
_var3613_                           0.118888979073421 	(obj:0)
_var3615_                           0.328627307259012 	(obj:0)
_var3618_                           0.141480499765044 	(obj:0)
_var3622_                         0.00474233142733277 	(obj:0)
_var3623_                           0.174443666566765 	(obj:0)
_var3625_                           0.337211690303891 	(obj:0)
_var3626_                           0.123034574786323 	(obj:0)
_var3629_                           0.210497307076941 	(obj:1)
_var3630_                           0.259845217873463 	(obj:0)
_var3632_                           0.163644135409354 	(obj:0)
_var3638_                           0.077335214774759 	(obj:0)
_var3640_                          0.0830494479427095 	(obj:0)
_var3643_                          0.0156471152316767 	(obj:1)
_var3645_                          0.0405998755700502 	(obj:0)
_var3648_                           0.210899563071363 	(obj:0)
_var3650_                           0.107873803463056 	(obj:0)
_var3652_                          0.0423072629035326 	(obj:0)
_var3655_                           0.218550013342916 	(obj:0)
_var3658_                          0.0928661390339902 	(obj:1)
_var3661_                           0.175418712612458 	(obj:1)
_var3662_                           0.044204917774756 	(obj:0)
_var3664_                          0.0208883381246309 	(obj:0)
_var3665_                          0.0867646891422353 	(obj:0)
_var3667_                           0.202029530290132 	(obj:0)
_var3668_                           0.109703188351312 	(obj:0)
_var3671_                           0.156318542282365 	(obj:1)
_var3672_                           0.205267801170022 	(obj:0)
_var3673_                           0.137649008266512 	(obj:0)
_var3675_                           0.125257672651378 	(obj:0)
_var3678_                          0.0653625908451151 	(obj:0)
_var3679_                           0.167825957373223 	(obj:0)
_var3683_                            0.09652642163657 	(obj:0)
_var3684_                           0.212024371479191 	(obj:0)
_var3688_                          0.0851931150248753 	(obj:0)
_var3690_                          0.0112826788500572 	(obj:0)
_var3692_                          0.0328746368151458 	(obj:0)
_var3693_                           0.109002260451338 	(obj:0)
_var3696_                          0.0721280156360913 	(obj:1)
_var3697_                          0.0497698112820018 	(obj:0)
_var3698_                           0.123657288096931 	(obj:0)
_var3699_                           0.152878694748523 	(obj:0)
_var3700_                           0.033508703736837 	(obj:0)
_var3701_                          0.0429484786698783 	(obj:0)
_var3703_                          0.0181310346881076 	(obj:0)
_var3708_                          0.0996227093431249 	(obj:0)
_var3709_                          0.0130102594448249 	(obj:0)
_var3710_                          0.0723964829315991 	(obj:0)
_var3711_                          0.0362121831959686 	(obj:0)
_var3714_                          0.0702825680948822 	(obj:0)
_var3715_                          0.0413946802584696 	(obj:1)
_var3716_                            0.12650953619905 	(obj:0)
_var3718_                          0.0412659046497784 	(obj:0)
_var3720_                          0.0589741563705288 	(obj:1)
_var3721_                          0.0348526568617866 	(obj:1)
_var3722_                          0.0388213928285263 	(obj:0)
_var3723_                           0.018246773295958 	(obj:0)
_var3724_                          0.0356941811779063 	(obj:0)
_var3725_                           0.022220292462641 	(obj:0)
_var3726_                          0.0364399599204891 	(obj:0)
_var3729_                           0.010243812309801 	(obj:0)
_var3730_                           0.013828898559202 	(obj:0)
_var3731_                          0.0134958469402917 	(obj:0)
_var3733_                         0.000464066803413084 	(obj:0)
